data/mip_solutions/furman_sahinidis/transportation/7sp2_gurobi.sol
Elapsed time: 0.0932440757751
Nodes explored: 12
Upper bound: 7.0
Lower bound: 7.0
y[0,0]=1
y[0,1]=1
y[0,2]=1
y[1,0]=1
y[1,3]=1
y[2,1]=1
y[3,0]=1
q[0,0,2,3]=1354.32
q[0,1,2,3]=1473.12
q[0,2,2,3]=498.96
q[0,3,0,3]=162.0
q[0,3,1,4]=224.4
q[0,3,2,3]=801.6
q[1,2,3,5]=331.17
q[1,3,0,4]=108.6
q[1,3,3,4]=2099.2
q[1,4,0,4]=753.87
q[1,4,3,5]=823.13
q[1,5,3,5]=157.7
q[2,1,1,3]=94.8
q[2,1,1,4]=723.6
q[2,2,1,3]=137.2
q[2,2,1,5]=140.0
q[2,3,1,3]=1848.0
q[2,4,1,4]=652.0
q[2,4,1,6]=668.0
q[2,5,1,5]=660.0
q[2,6,1,6]=132.0
q[3,3,0,3]=1438.0
q[3,3,0,4]=737.53
q[3,3,3,5]=1.27329258248e-11
