data/mip_solutions/furman_sahinidis/transportation/7sp2_gurobi.log

Gurobi 6.5.2 (linux64) logging started Tue Jun  6 16:47:35 2017

Changed value of parameter LogFile to test_cases/mip_solutions/furman_sahinidis/transportation/7sp2_gurobi.log
   Prev: gurobi.log  Default: 
Changed value of parameter Threads to 1
   Prev: 0  Min: 0  Max: 1024  Default: 0
Optimize a model with 410 rows, 802 columns and 2722 nonzeros
Coefficient statistics:
  Matrix range    [1e+00, 5e+03]
  Objective range [1e+00, 1e+00]
  Bounds range    [1e+00, 1e+00]
  RHS range       [1e+00, 4e+03]
Found heuristic solution: objective 16
Presolve removed 371 rows and 679 columns
Presolve time: 0.00s
Presolved: 39 rows, 123 columns, 339 nonzeros
Variable types: 108 continuous, 15 integer (15 binary)

Root relaxation: objective 4.369854e+00, 94 iterations, 0.00 seconds

    Nodes    |    Current Node    |     Objective Bounds      |     Work
 Expl Unexpl |  Obj  Depth IntInf | Incumbent    BestBd   Gap | It/Node Time

     0     0    4.36985    0    3   16.00000    4.36985  72.7%     -    0s
H    0     0                       7.0000000    4.36985  37.6%     -    0s
     0     0    5.31547    0   10    7.00000    5.31547  24.1%     -    0s
     0     0    5.39154    0   10    7.00000    5.39154  23.0%     -    0s
     0     0    5.39434    0   11    7.00000    5.39434  22.9%     -    0s
     0     0    5.40804    0   12    7.00000    5.40804  22.7%     -    0s
     0     0    5.41978    0   11    7.00000    5.41978  22.6%     -    0s
     0     0    5.46128    0   13    7.00000    5.46128  22.0%     -    0s
     0     0    5.47468    0   13    7.00000    5.47468  21.8%     -    0s
     0     0    5.47966    0   14    7.00000    5.47966  21.7%     -    0s
     0     2    5.49714    0   14    7.00000    5.49714  21.5%     -    0s

Cutting planes:
  Cover: 2
  Implied bound: 10
  MIR: 5
  Flow cover: 3
  Network: 8

Explored 12 nodes (447 simplex iterations) in 0.01 seconds
Thread count was 1 (of 8 available processors)

Optimal solution found (tolerance 4.00e-02)
Best objective 7.000000000000e+00, best bound 7.000000000000e+00, gap 0.0%

Gurobi 6.5.2 (linux64) logging started Mon Jul 24 16:46:05 2017

Changed value of parameter LogFile to data/mip_solutions/furman_sahinidis/transportation/7sp2_gurobi.log
   Prev: gurobi.log  Default: 
Changed value of parameter Threads to 1
   Prev: 0  Min: 0  Max: 1024  Default: 0
Optimize a model with 410 rows, 802 columns and 2722 nonzeros
Coefficient statistics:
  Matrix range    [1e+00, 5e+03]
  Objective range [1e+00, 1e+00]
  Bounds range    [1e+00, 1e+00]
  RHS range       [1e+00, 4e+03]
Found heuristic solution: objective 16
Presolve removed 371 rows and 679 columns
Presolve time: 0.00s
Presolved: 39 rows, 123 columns, 339 nonzeros
Variable types: 108 continuous, 15 integer (15 binary)

Root relaxation: objective 4.369854e+00, 94 iterations, 0.00 seconds

    Nodes    |    Current Node    |     Objective Bounds      |     Work
 Expl Unexpl |  Obj  Depth IntInf | Incumbent    BestBd   Gap | It/Node Time

     0     0    4.36985    0    3   16.00000    4.36985  72.7%     -    0s
H    0     0                       7.0000000    4.36985  37.6%     -    0s
     0     0    5.31547    0   10    7.00000    5.31547  24.1%     -    0s
     0     0    5.39154    0   10    7.00000    5.39154  23.0%     -    0s
     0     0    5.39434    0   11    7.00000    5.39434  22.9%     -    0s
     0     0    5.40804    0   12    7.00000    5.40804  22.7%     -    0s
     0     0    5.41978    0   11    7.00000    5.41978  22.6%     -    0s
     0     0    5.46128    0   13    7.00000    5.46128  22.0%     -    0s
     0     0    5.47468    0   13    7.00000    5.47468  21.8%     -    0s
     0     0    5.47966    0   14    7.00000    5.47966  21.7%     -    0s
     0     2    5.49714    0   14    7.00000    5.49714  21.5%     -    0s

Cutting planes:
  Cover: 2
  Implied bound: 10
  MIR: 5
  Flow cover: 3
  Network: 8

Explored 12 nodes (447 simplex iterations) in 0.01 seconds
Thread count was 1 (of 8 available processors)

Optimal solution found (tolerance 4.00e-02)
Best objective 7.000000000000e+00, best bound 7.000000000000e+00, gap 0.0%

Gurobi 6.5.2 (linux64) logging started Mon Jul 24 16:58:59 2017

Changed value of parameter LogFile to data/mip_solutions/furman_sahinidis/transportation/7sp2_gurobi.log
   Prev: gurobi.log  Default: 
Changed value of parameter Threads to 1
   Prev: 0  Min: 0  Max: 1024  Default: 0
Optimize a model with 410 rows, 802 columns and 2722 nonzeros
Coefficient statistics:
  Matrix range    [1e+00, 5e+03]
  Objective range [1e+00, 1e+00]
  Bounds range    [1e+00, 1e+00]
  RHS range       [1e+00, 4e+03]
Found heuristic solution: objective 16
Presolve removed 371 rows and 679 columns
Presolve time: 0.00s
Presolved: 39 rows, 123 columns, 339 nonzeros
Variable types: 108 continuous, 15 integer (15 binary)

Root relaxation: objective 4.369854e+00, 94 iterations, 0.00 seconds

    Nodes    |    Current Node    |     Objective Bounds      |     Work
 Expl Unexpl |  Obj  Depth IntInf | Incumbent    BestBd   Gap | It/Node Time

     0     0    4.36985    0    3   16.00000    4.36985  72.7%     -    0s
H    0     0                       7.0000000    4.36985  37.6%     -    0s
     0     0    5.31547    0   10    7.00000    5.31547  24.1%     -    0s
     0     0    5.39154    0   10    7.00000    5.39154  23.0%     -    0s
     0     0    5.39434    0   11    7.00000    5.39434  22.9%     -    0s
     0     0    5.40804    0   12    7.00000    5.40804  22.7%     -    0s
     0     0    5.41978    0   11    7.00000    5.41978  22.6%     -    0s
     0     0    5.46128    0   13    7.00000    5.46128  22.0%     -    0s
     0     0    5.47468    0   13    7.00000    5.47468  21.8%     -    0s
     0     0    5.47966    0   14    7.00000    5.47966  21.7%     -    0s
     0     2    5.49714    0   14    7.00000    5.49714  21.5%     -    0s

Cutting planes:
  Cover: 2
  Implied bound: 10
  MIR: 5
  Flow cover: 3
  Network: 8

Explored 12 nodes (447 simplex iterations) in 0.01 seconds
Thread count was 1 (of 8 available processors)

Optimal solution found (tolerance 4.00e-02)
Best objective 7.000000000000e+00, best bound 7.000000000000e+00, gap 0.0%

Gurobi 6.5.2 (linux64) logging started Wed Jul 26 16:03:17 2017

Changed value of parameter LogFile to data/mip_solutions/furman_sahinidis/transportation/7sp2_gurobi.log
   Prev: gurobi.log  Default: 
Changed value of parameter Threads to 1
   Prev: 0  Min: 0  Max: 1024  Default: 0
Optimize a model with 410 rows, 802 columns and 2722 nonzeros
Coefficient statistics:
  Matrix range    [1e+00, 5e+03]
  Objective range [1e+00, 1e+00]
  Bounds range    [1e+00, 1e+00]
  RHS range       [1e+00, 4e+03]
Found heuristic solution: objective 16
Presolve removed 371 rows and 679 columns
Presolve time: 0.00s
Presolved: 39 rows, 123 columns, 339 nonzeros
Variable types: 108 continuous, 15 integer (15 binary)

Root relaxation: objective 4.369854e+00, 94 iterations, 0.00 seconds

    Nodes    |    Current Node    |     Objective Bounds      |     Work
 Expl Unexpl |  Obj  Depth IntInf | Incumbent    BestBd   Gap | It/Node Time

     0     0    4.36985    0    3   16.00000    4.36985  72.7%     -    0s
H    0     0                       7.0000000    4.36985  37.6%     -    0s
     0     0    5.31547    0   10    7.00000    5.31547  24.1%     -    0s
     0     0    5.39154    0   10    7.00000    5.39154  23.0%     -    0s
     0     0    5.39434    0   11    7.00000    5.39434  22.9%     -    0s
     0     0    5.40804    0   12    7.00000    5.40804  22.7%     -    0s
     0     0    5.41978    0   11    7.00000    5.41978  22.6%     -    0s
     0     0    5.46128    0   13    7.00000    5.46128  22.0%     -    0s
     0     0    5.47468    0   13    7.00000    5.47468  21.8%     -    0s
     0     0    5.47966    0   14    7.00000    5.47966  21.7%     -    0s
     0     2    5.49714    0   14    7.00000    5.49714  21.5%     -    0s

Cutting planes:
  Cover: 2
  Implied bound: 10
  MIR: 5
  Flow cover: 3
  Network: 8

Explored 12 nodes (447 simplex iterations) in 0.01 seconds
Thread count was 1 (of 8 available processors)

Optimal solution found (tolerance 4.00e-02)
Best objective 7.000000000000e+00, best bound 7.000000000000e+00, gap 0.0%
